<number of tasks>
20

<cycle time>
1000

<order strength>
0,147


<task times>
1 241
2 123
3 53
4 193
5 69
6 292
7 75
8 152
9 167
10 269
11 113
12 108
13 81
14 139
15 93
16 139
17 57
18 235
19 193
20 31

<precedence relations>
1,7
1,11
3,10
3,12
4,8
4,9
7,13
8,14
10,16
12,15
13,18
14,17
17,19
18,20

<end>
